(declare-const __VERIFIER_assert__cond___7 Int)
(declare-const |phi_main__t:349:452:481| Int)
(declare-const |havoc:9:59:138:334:342:466:495| Int)
(declare-const |__VERIFIER_assert__cond___3':297:320:329:473:502| Int)
(declare-const |__VERIFIER_assert__cond___8':300:316:325:469:498| Int)
(declare-const __VERIFIER_assert__cond___16 Int)
(declare-const havoc Int)
(declare-const |K:313:314:323:467:496| Int)
(declare-const |phi___VERIFIER_assert__cond___15:344:457:486| Int)
(declare-const __VERIFIER_assert__cond___8 Int)
(declare-const |main____CPAchecker_TMP_0':141:162:169:338:462:491| Int)
(declare-const |main__t':140:317:326:470:499| Int)
(declare-const |phi___tmp_383_0:351:450:479| Int)
(declare-const |main____CPAchecker_TMP_4':296:321:330:474:503| Int)
(declare-const |main____CPAchecker_TMP_3':295:322:331:475:504| Int)
(declare-const |__VERIFIER_assert__cond___4':298:319:328:472:501| Int)
(declare-const |K:158:159:166:335:459:488| Int)
(declare-const |main__t':140:160:167:336:460:489| Int)
(declare-const |havoc:3:58:478| Int)
(declare-const |phi___tmp_247_0:350:451:480| Int)
(declare-const main____CPAchecker_TMP_6 Int)
(declare-const main____CPAchecker_TMP_4 Int)
(declare-const |phi_main____CPAchecker_TMP_0:348:453:482| Int)
(declare-const |__VERIFIER_assert__cond___15':143:161:168:337:461:490| Int)
(declare-const __VERIFIER_assert__cond___3 Int)
(declare-const |phi___VERIFIER_assert__cond___16:343:458:487| Int)
(declare-const |__VERIFIER_assert__cond___7':299:315:324:468:497| Int)
(declare-const main____CPAchecker_TMP_3 Int)
(declare-const __VERIFIER_assert__cond___11 Int)
(declare-const |phi_main____CPAchecker_TMP_0___0:345:456:485| Int)
(declare-const __VERIFIER_assert__cond___12 Int)
(declare-const |phi___VERIFIER_assert__cond___12:346:455:484| Int)
(declare-const __tmp_383_0 Int)
(declare-const |main____CPAchecker_TMP_0___0':142:165:172:341:465:494| Int)
(declare-const |phi___VERIFIER_assert__cond___11:347:454:483| Int)
(declare-const __VERIFIER_assert__cond___4 Int)
(declare-const |__VERIFIER_assert__cond___16':144:164:171:340:464:493| Int)
(declare-const |havoc:25:61:333:477:506| Int)
(declare-const |main____CPAchecker_TMP_6':301:318:327:471:500| Int)
(declare-const main____CPAchecker_TMP_0___0 Int)
(declare-const |havoc:24:60:273:332:476:505| Int)
(declare-const __VERIFIER_assert__cond___15 Int)
(declare-const |__tmp_383_0':139:163:170:339:463:492| Int)
(assert (and (<= (+ (- havoc) 1) 0) (not (= (+ (- havoc) 1) 0))
               (or (and (not (= |havoc:3:58:478| 0))
                          (= (+ (- |phi___tmp_383_0:351:450:479|) __tmp_383_0) 0)
                          (= (+ (- |phi___tmp_247_0:350:451:480|)
                                  |havoc:3:58:478|) 0)
                          (= (- |phi_main__t:349:452:481|) 0)
                          (= (+ (- |phi_main____CPAchecker_TMP_0:348:453:482|)
                                  |havoc:3:58:478|) 0)
                          (= (+ (- |phi___VERIFIER_assert__cond___11:347:454:483|)
                                  __VERIFIER_assert__cond___11) 0)
                          (= (+ (- |phi___VERIFIER_assert__cond___12:346:455:484|)
                                  __VERIFIER_assert__cond___12) 0)
                          (= (+ (- |phi_main____CPAchecker_TMP_0___0:345:456:485|)
                                  main____CPAchecker_TMP_0___0) 0)
                          (= (+ (- |phi___VERIFIER_assert__cond___15:344:457:486|)
                                  __VERIFIER_assert__cond___15) 0)
                          (= (+ (- |phi___VERIFIER_assert__cond___16:343:458:487|)
                                  __VERIFIER_assert__cond___16) 0))
                     (and (= |havoc:3:58:478| 0)
                            (not (= (ite (<= (+ (- havoc) 1) 0) 1 0) 0))
                            (or (not (<= (- |K:158:159:166:335:459:488|) 0))
                                  (= (+ |main__t':140:160:167:336:460:489|
                                          (- |K:158:159:166:335:459:488|)) 0))
                            (or (not (and (<= (- |K:158:159:166:335:459:488|) 0)
                                            (<= |K:158:159:166:335:459:488| 0)))
                                  (= (+ |__VERIFIER_assert__cond___15':143:161:168:337:461:490|
                                          (- __VERIFIER_assert__cond___15)) 0))
                            (or (not (<= (+ (- |K:158:159:166:335:459:488|) 1) 0))
                                  (= (+ |__VERIFIER_assert__cond___15':143:161:168:337:461:490|
                                          -1) 0))
                            (or (not (and (<= (- |K:158:159:166:335:459:488|) 0)
                                            (<= |K:158:159:166:335:459:488| 0)))
                                  (= (+ |main____CPAchecker_TMP_0':141:162:169:338:462:491|
                                          (- |havoc:3:58:478|)) 0))
                            (or (not (<= (+ (- |K:158:159:166:335:459:488|) 1) 0))
                                  (= |main____CPAchecker_TMP_0':141:162:169:338:462:491| 0))
                            (or (not (and (<= (- |K:158:159:166:335:459:488|) 0)
                                            (<= |K:158:159:166:335:459:488| 0)))
                                  (= (+ |__tmp_383_0':139:163:170:339:463:492|
                                          (- |havoc:3:58:478|)) 0))
                            (or (not (<= (+ (- |K:158:159:166:335:459:488|) 1) 0))
                                  (= |__tmp_383_0':139:163:170:339:463:492| 0))
                            (or (not (and (<= (- |K:158:159:166:335:459:488|) 0)
                                            (<= |K:158:159:166:335:459:488| 0)))
                                  (= (+ |__VERIFIER_assert__cond___16':144:164:171:340:464:493|
                                          (- __VERIFIER_assert__cond___16)) 0))
                            (or (not (<= (+ (- |K:158:159:166:335:459:488|) 1) 0))
                                  (= (+ |__VERIFIER_assert__cond___16':144:164:171:340:464:493|
                                          -1) 0))
                            (or (not (and (<= (- |K:158:159:166:335:459:488|) 0)
                                            (<= |K:158:159:166:335:459:488| 0)))
                                  (= (+ |main____CPAchecker_TMP_0___0':142:165:172:341:465:494|
                                          (- main____CPAchecker_TMP_0___0)) 0))
                            (or (not (<= (+ (- |K:158:159:166:335:459:488|) 1) 0))
                                  (= |main____CPAchecker_TMP_0___0':142:165:172:341:465:494| 0))
                            (or (and (= |K:158:159:166:335:459:488| 0)
                                       (= (+ (- |__VERIFIER_assert__cond___16':144:164:171:340:464:493|)
                                               __VERIFIER_assert__cond___16) 0)
                                       (= (+ (- |__VERIFIER_assert__cond___15':143:161:168:337:461:490|)
                                               __VERIFIER_assert__cond___15) 0)
                                       (= (+ (- |main____CPAchecker_TMP_0___0':142:165:172:341:465:494|)
                                               main____CPAchecker_TMP_0___0) 0)
                                       (= (+ (- |main____CPAchecker_TMP_0':141:162:169:338:462:491|)
                                               |havoc:3:58:478|) 0)
                                       (= (- |main__t':140:160:167:336:460:489|) 0)
                                       (= (+ (- |__tmp_383_0':139:163:170:339:463:492|)
                                               |havoc:3:58:478|) 0))
                                  (and (<= (+ (- |K:158:159:166:335:459:488|)
                                                1) 0) (= |havoc:3:58:478| 0)
                                         (= |havoc:3:58:478| 0)
                                         (<= (+ (- havoc) 3) 0)
                                         (= (+ |__VERIFIER_assert__cond___16':144:164:171:340:464:493|
                                                 -1) 0)
                                         (= (+ |__VERIFIER_assert__cond___15':143:161:168:337:461:490|
                                                 -1) 0)
                                         (= |main____CPAchecker_TMP_0':141:162:169:338:462:491| 0)
                                         (= |main____CPAchecker_TMP_0___0':142:165:172:341:465:494| 0)
                                         (= |__tmp_383_0':139:163:170:339:463:492| 0)
                                         (<= (+ |main__t':140:160:167:336:460:489|
                                                  (- havoc) 2) 0)
                                         (<= (+ (- |main__t':140:160:167:336:460:489|)
                                                  1) 0)))
                            (<= (- |K:158:159:166:335:459:488|) 0)
                            (= |__tmp_383_0':139:163:170:339:463:492| 0)
                            (= |main____CPAchecker_TMP_0':141:162:169:338:462:491| 0)
                            (<= (- |main__t':140:160:167:336:460:489|) 0)
                            (< (+ (- havoc) 1) 0)
                            (= |__tmp_383_0':139:163:170:339:463:492| 0)
                            (= |main____CPAchecker_TMP_0':141:162:169:338:462:491| 0)
                            (not (= (+ |main__t':140:160:167:336:460:489|
                                         (- havoc) 2) 0))
                            (not (= |havoc:9:59:138:334:342:466:495| 0))
                            (= (+ |__tmp_383_0':139:163:170:339:463:492|
                                    (- |phi___tmp_383_0:351:450:479|)) 0)
                            (= (+ |havoc:9:59:138:334:342:466:495|
                                    (- |phi___tmp_247_0:350:451:480|)) 0)
                            (= (+ |main__t':140:160:167:336:460:489|
                                    (- |phi_main__t:349:452:481|) 1) 0)
                            (= (+ |__tmp_383_0':139:163:170:339:463:492|
                                    (- |phi_main____CPAchecker_TMP_0:348:453:482|)) 0)
                            (= (+ (- |phi___VERIFIER_assert__cond___11:347:454:483|)
                                    1) 0)
                            (= (+ (ite (<= (+ (- havoc) 1) 0) 1 0)
                                    (- |phi___VERIFIER_assert__cond___12:346:455:484|)) 0)
                            (= (+ |havoc:9:59:138:334:342:466:495|
                                    (- |phi_main____CPAchecker_TMP_0___0:345:456:485|)) 0)
                            (= (+ |__VERIFIER_assert__cond___15':143:161:168:337:461:490|
                                    (- |phi___VERIFIER_assert__cond___15:344:457:486|)) 0)
                            (= (+ |__VERIFIER_assert__cond___16':144:164:171:340:464:493|
                                    (- |phi___VERIFIER_assert__cond___16:343:458:487|)) 0)))
               (not (= (ite (<= (- |phi_main__t:349:452:481|) 0) 1 0) 0))
               (not (= (ite (<= (+ |phi_main__t:349:452:481| (- havoc) 1) 0)
                            1 0) 0))
               (or (not (and (<= (- |K:313:314:323:467:496|) 0)
                               (<= |K:313:314:323:467:496| 0)))
                     (= (+ (- __VERIFIER_assert__cond___7)
                             |__VERIFIER_assert__cond___7':299:315:324:468:497|) 0))
               (or (not (<= (+ (- |K:313:314:323:467:496|) 1) 0))
                     (= (+ |__VERIFIER_assert__cond___7':299:315:324:468:497|
                             -1) 0))
               (or (not (and (<= (- |K:313:314:323:467:496|) 0)
                               (<= |K:313:314:323:467:496| 0)))
                     (= (+ (- __VERIFIER_assert__cond___8)
                             |__VERIFIER_assert__cond___8':300:316:325:469:498|) 0))
               (or (not (<= (+ (- |K:313:314:323:467:496|) 1) 0))
                     (= (+ |__VERIFIER_assert__cond___8':300:316:325:469:498|
                             -1) 0))
               (or (not (<= (- |K:313:314:323:467:496|) 0))
                     (<= (+ |main__t':140:317:326:470:499|
                              (* -2 |K:313:314:323:467:496|)
                              (- |phi_main__t:349:452:481|) -1) 0))
               (or (not (<= (- |K:313:314:323:467:496|) 0))
                     (<= (+ |main__t':140:317:326:470:499|
                              (* 2 |K:313:314:323:467:496|)
                              (- |phi_main__t:349:452:481|)
                              (- (* |K:313:314:323:467:496| havoc)) -1) 0))
               (or (not (<= (- |K:313:314:323:467:496|) 0))
                     (<= (+ (- |main__t':140:317:326:470:499|)
                              |K:313:314:323:467:496|
                              |phi_main__t:349:452:481| 1) 0))
               (or (and (= |K:313:314:323:467:496| 0)
                          (= (+ (- |main____CPAchecker_TMP_6':301:318:327:471:500|)
                                  main____CPAchecker_TMP_6) 0)
                          (= (+ __VERIFIER_assert__cond___8
                                  (- |__VERIFIER_assert__cond___8':300:316:325:469:498|)) 0)
                          (= (+ __VERIFIER_assert__cond___7
                                  (- |__VERIFIER_assert__cond___7':299:315:324:468:497|)) 0)
                          (= (+ (- |__VERIFIER_assert__cond___4':298:319:328:472:501|)
                                  __VERIFIER_assert__cond___4) 0)
                          (= (+ (- |__VERIFIER_assert__cond___3':297:320:329:473:502|)
                                  __VERIFIER_assert__cond___3) 0)
                          (= (+ (- |main____CPAchecker_TMP_4':296:321:330:474:503|)
                                  main____CPAchecker_TMP_4) 0)
                          (= (+ (- |main____CPAchecker_TMP_3':295:322:331:475:504|)
                                  main____CPAchecker_TMP_3) 0)
                          (= (+ (- |main__t':140:317:326:470:499|)
                                  |phi_main__t:349:452:481| 1) 0))
                     (and (<= (+ (- |K:313:314:323:467:496|) 1) 0)
                            (<= (+ |phi_main__t:349:452:481| (- havoc) 3) 0)
                            (<= (- |phi_main__t:349:452:481|) 0)
                            (= (+ |__VERIFIER_assert__cond___8':300:316:325:469:498|
                                    -1) 0)
                            (= (+ |__VERIFIER_assert__cond___7':299:315:324:468:497|
                                    -1) 0)
                            (<= (+ |main__t':140:317:326:470:499| (- havoc) 1) 0)
                            (<= (+ (- |main__t':140:317:326:470:499|) 2) 0)))
               (<= (- |K:313:314:323:467:496|) 0)
               (< (- |main__t':140:317:326:470:499|) 0) (< (+ (- havoc) 1) 0)
               (not (= (+ |main__t':140:317:326:470:499| (- havoc) 1) 0))
               (= |havoc:24:60:273:332:476:505| 0)
               (not (= |havoc:25:61:333:477:506| 0))
               (= (ite (<= (- |main__t':140:317:326:470:499|) 0) 1 0) 0)))
(check-sat)
